
Gurobi 10.0.1 (mac64[x86]) logging started Tue Apr 18 21:20:59 2023

Set parameter LogFile to value "LogFiles/MP-51.txt"
Gurobi Optimizer version 10.0.1 build v10.0.1rc0 (mac64[x86])

CPU model: Intel(R) Core(TM) i5-5250U CPU @ 1.60GHz
Thread count: 2 physical cores, 4 logical processors, using up to 4 threads

Optimize a model with 25 rows, 51 columns and 155 nonzeros
Coefficient statistics:
  Matrix range     [1e+00, 1e+00]
  Objective range  [2e+01, 2e+02]
  Bounds range     [1e+00, 1e+00]
  RHS range        [1e+00, 1e+00]
Iteration    Objective       Primal Inf.    Dual Inf.      Time
       0    5.2960334e+02   1.200000e+01   0.000000e+00      0s
       7    5.8466769e+02   0.000000e+00   0.000000e+00      0s

Solved in 7 iterations and 0.00 seconds (0.00 work units)
Optimal objective  5.846676856e+02

Gurobi 10.0.1 (mac64[x86]) logging started Wed Apr 19 10:15:23 2023

Set parameter LogFile to value "LogFiles/MP-51.txt"
Gurobi Optimizer version 10.0.1 build v10.0.1rc0 (mac64[x86])

CPU model: Intel(R) Core(TM) i5-5250U CPU @ 1.60GHz
Thread count: 2 physical cores, 4 logical processors, using up to 4 threads

Optimize a model with 25 rows, 51 columns and 155 nonzeros
Coefficient statistics:
  Matrix range     [1e+00, 1e+00]
  Objective range  [2e+01, 2e+02]
  Bounds range     [1e+00, 1e+00]
  RHS range        [1e+00, 1e+00]
Iteration    Objective       Primal Inf.    Dual Inf.      Time
       0    5.2960334e+02   1.200000e+01   0.000000e+00      0s
       7    5.8466769e+02   0.000000e+00   0.000000e+00      0s

Solved in 7 iterations and 0.00 seconds (0.00 work units)
Optimal objective  5.846676856e+02
